{
  "time": [
    17,
    21,
    32,
    34,
    36,
    36,
    37,
    42,
    43,
    44,
    47,
    48,
    50,
    53,
    54,
    58,
    60,
    65,
    81,
    89,
    124,
    126,
    130,
    132,
    137,
    138,
    142,
    145,
    147,
    151,
    151,
    157,
    161,
    165,
    168,
    169,
    192,
    193,
    195,
    197,
    197,
    201,
    204,
    221,
    246,
    250,
    251,
    251,
    254,
    257,
    274,
    293,
    297,
    306,
    308,
    309,
    310,
    317,
    320,
    324,
    359,
    365,
    369,
    409
  ],
  "cost": [
    756,
    738,
    731,
    726,
    723,
    720,
    718,
    702,
    701,
    694,
    693,
    692,
    691,
    690,
    683,
    680,
    676,
    675,
    673,
    672,
    671,
    669,
    667,
    666,
    665,
    662,
    661,
    657,
    656,
    650,
    639,
    637,
    633,
    631,
    630,
    626,
    625,
    623,
    620,
    619,
    618,
    611,
    601,
    597,
    596,
    593,
    592,
    590,
    589,
    568,
    567,
    560,
    559,
    557,
    556,
    554,
    553,
    546,
    545,
    544,
    543,
    541,
    540,
    532
  ]
}